183
0 138 119 73 146 86 133 181 31 85 
46 57 60 147 18 180 101 9 131 106 
156 140 1 62 7 155 78 178 134 74 
29 171 61 13 32 176 124 177 167 182 
116 55 163 47 151 40 67 11 28 42 
118 104 76 132 166 170 92 89 91 82 
162 54 51 75 122 84 26 141 121 115 
6 70 144 64 44 107 117 39 130 23 
87 96 179 48 34 149 45 30 21 152 
5 150 175 114 2 173 154 112 33 98 
36 15 113 49 93 65 83 53 90 43 
135 4 3 108 136 68 66 145 8 157 
111 63 102 20 24 105 95 56 126 17 
25 22 174 139 125 127 137 164 88 59 
16 165 168 110 79 100 71 159 97 128 
129 14 99 94 58 69 12 123 172 120 
143 10 77 161 109 103 72 80 41 50 
81 35 37 169 158 19 52 142 27 38 
148 160 153 
